%mem=1Gb
# opt b3lyp/6-31G

9_hexagons5196

0 1
 C -1.2145 0.694 0.0
 C -1.2145 2.082 0.0
 C 0.0 0.0 0.0
 C 0.0 2.776 0.0
 C -2.4289999999999994 2.776 0.0
 C -3.6434999999999995 2.082 0.0
 C -2.4289999999999994 4.164 0.0
 C -4.858 2.776 0.0
 C 1.2145 0.694 0.0
 C 1.2145 2.082 0.0
 C 2.429 2.776 0.0
 C 0.0 4.164 0.0
 C 3.6434999999999995 2.082 0.0
 C 4.858 2.776 0.0
 C 2.429 4.164 0.0
 C 4.858 4.164 0.0
 C -3.6434999999999995 4.858 0.0
 C -1.2145 4.858 0.0
 C -4.858 4.164 0.0
 C -3.6434999999999995 6.2459999999999996 0.0
 C 1.2145 4.858 0.0
 C -1.2145 6.2459999999999996 0.0
 C 3.6434999999999995 4.858 0.0
 C 1.2145 6.2459999999999996 0.0
 C -2.429 6.9399999999999995 0.0
 C 0.0 6.9399999999999995 0.0
 C -2.429 8.328 0.0
 C 2.429 6.9399999999999995 0.0
 C 0.0 8.328 0.0
 C 3.6434999999999995 6.2459999999999996 0.0
 C 4.858 6.9399999999999995 0.0
 C 2.429 8.328 0.0
 C 4.858 8.328 0.0
 C -1.2145 9.021999999999998 0.0
 C 1.2145 9.021999999999998 0.0
 C 3.6434999999999995 9.021999999999998 0.0
 H -2.082 0.19829999999999998 0.0
 H -2.0215 2.2923 0.7
 H -1.6219999999999994 2.5656999999999996 -0.7
 H 0.0 -1.0 0.0
 H -3.6434999999999995 1.0819999999999999 0.0
 H -5.725499999999999 2.2803 0.0
 H 2.082 0.19829999999999998 0.0
 H 3.6434999999999995 1.0819999999999999 0.0
 H 5.725499999999999 2.2803 0.0
 H 5.725499999999999 4.6597 0.0
 H -5.725499999999999 4.6597 0.0
 H -4.510999999999999 6.7417 0.0
 H 3.6434999999999995 5.358 0.9
 H 3.6434999999999995 5.7459999999999996 -0.9
 H -3.2965 8.823699999999999 0.0
 H 5.725499999999999 6.444299999999999 0.0
 H 5.725499999999999 8.823699999999999 0.0
 H -1.2145 10.021999999999998 0.0
 H 1.2145 10.021999999999998 0.0
 H 3.6434999999999995 10.021999999999998 0.0

